SDVRP instances/custom_instances/p02_28_split0.vrp
NAME:p02_28_split
BEST_KNOWN: 0
COMMENT: 0
DIMENSION: 404
CAPACITY: 140
EDGE_WEIGHT_FORMAT: FUNCTION
EDGE_WEIGHT_TYPE: EXACT_2D
NODE_COORD_SECTION
1 0.00000 0.00000
2 -12 -12
3 -12 -12
4 -12 -12
5 -12 -12
6 -12 -12
7 47 25
8 47 25
9 47 25
10 47 25
11 14 20
12 14 20
13 14 20
14 14 20
15 23 -26
16 23 -26
17 23 -26
18 -23 30
19 -23 30
20 -23 30
21 -23 30
22 -23 30
23 -1 49
24 -1 49
25 -1 49
26 -1 49
27 -1 49
28 -1 49
29 -1 49
30 -1 49
31 46 43
32 46 43
33 4 45
34 4 45
35 4 45
36 4 45
37 -41 -25
38 -41 -25
39 -41 -25
40 23 -8
41 23 -8
42 23 -8
43 23 -8
44 23 -8
45 23 -8
46 23 -8
47 -15 -8
48 -15 -8
49 -15 -8
50 -18 29
51 -18 29
52 -18 29
53 -18 29
54 -18 29
55 -18 29
56 8 -46
57 8 -46
58 8 -46
59 8 -46
60 8 -46
61 24 31
62 24 31
63 24 31
64 24 31
65 24 31
66 24 31
67 -39 -31
68 -39 -31
69 -39 -31
70 30 41
71 30 41
72 30 41
73 30 41
74 30 41
75 44 -34
76 44 -34
77 44 -34
78 44 -34
79 44 -34
80 -37 -37
81 -37 -37
82 -37 -37
83 -37 -37
84 -37 -37
85 -37 -37
86 31 50
87 31 50
88 31 50
89 31 50
90 31 50
91 31 50
92 31 50
93 35 -44
94 35 -44
95 35 -44
96 35 -44
97 35 -44
98 35 -44
99 35 -44
100 -40 47
101 -40 47
102 -40 47
103 -40 47
104 -40 47
105 -40 47
106 8 -39
107 8 -39
108 8 -39
109 28 -5
110 28 -5
111 -32 21
112 -45 30
113 -45 30
114 -45 30
115 -45 30
116 -45 30
117 -45 30
118 -45 30
119 -45 30
120 -6 2
121 -6 2
122 -6 2
123 -6 2
124 -6 2
125 -6 2
126 26 30
127 26 30
128 26 30
129 26 30
130 26 30
131 19 -43
132 19 -43
133 19 -43
134 -42 12
135 -42 12
136 -42 12
137 -42 12
138 -42 12
139 39 -27
140 39 -27
141 39 -27
142 39 -27
143 39 -27
144 39 -27
145 39 -27
146 4 3
147 4 3
148 4 3
149 4 3
150 20 -23
151 20 -23
152 20 -23
153 20 -23
154 20 -23
155 20 -23
156 20 -23
157 -39 6
158 -39 6
159 -39 6
160 32 31
161 32 31
162 32 31
163 32 31
164 32 31
165 -9 16
166 -9 16
167 -9 16
168 -9 16
169 -9 16
170 -9 16
171 -9 16
172 -9 16
173 24 -48
174 24 -48
175 23 -11
176 23 -11
177 23 -11
178 23 -11
179 23 -11
180 23 -11
181 23 -11
182 23 -11
183 -31 -21
184 -31 -21
185 -31 -21
186 -31 -21
187 -31 -21
188 34 -24
189 34 -24
190 34 -24
191 34 -24
192 34 -24
193 34 -24
194 34 -24
195 34 -24
196 -21 -28
197 -21 -28
198 -21 -28
199 -15 5
200 -15 5
201 -15 5
202 -15 5
203 11 23
204 11 23
205 11 23
206 11 23
207 6 39
208 6 39
209 6 39
210 6 39
211 6 39
212 -33 16
213 -33 16
214 -33 16
215 -33 16
216 -33 16
217 -33 16
218 -33 16
219 -33 16
220 -33 16
221 18 -19
222 18 -19
223 18 -19
224 18 -19
225 45 23
226 45 23
227 45 23
228 45 23
229 45 23
230 45 23
231 40 -11
232 40 -11
233 40 -11
234 40 -11
235 40 -11
236 40 -11
237 40 -11
238 40 -11
239 0 -15
240 0 -15
241 0 -15
242 0 -15
243 0 -15
244 0 -15
245 0 -15
246 -23 -15
247 -23 -15
248 -49 -38
249 -49 -38
250 -49 -38
251 -49 -38
252 -49 -38
253 -3 -39
254 -3 -39
255 -3 -39
256 -3 -39
257 -3 -39
258 -3 -39
259 -3 -39
260 24 12
261 24 12
262 24 12
263 24 12
264 24 12
265 24 12
266 24 12
267 37 -36
268 40 18
269 40 18
270 40 18
271 40 18
272 40 18
273 40 18
274 40 18
275 40 18
276 -46 -33
277 -46 -33
278 -46 -33
279 -46 -33
280 -46 -33
281 -46 -33
282 5 -2
283 5 -2
284 5 -2
285 5 -2
286 5 -2
287 -14 -9
288 -14 -9
289 -35 46
290 -35 46
291 -35 46
292 -35 46
293 -35 46
294 -35 46
295 -35 46
296 -35 46
297 28 -9
298 28 -9
299 28 -9
300 28 -9
301 28 -9
302 28 -9
303 28 -9
304 28 -9
305 28 -9
306 48 43
307 48 43
308 48 43
309 -24 7
310 -24 7
311 -24 7
312 -24 7
313 -24 7
314 -24 7
315 22 -35
316 22 -35
317 22 -35
318 22 -35
319 22 -35
320 22 -35
321 4 -5
322 4 -5
323 4 -5
324 4 -5
325 4 -5
326 4 -5
327 4 -5
328 4 -5
329 -31 22
330 -31 22
331 -31 22
332 -31 22
333 -31 22
334 -31 22
335 -31 22
336 -31 22
337 -31 22
338 30 -45
339 30 -45
340 30 -45
341 30 -45
342 30 -45
343 30 -45
344 30 -45
345 30 -45
346 30 -45
347 -10 28
348 -10 28
349 -10 28
350 -10 28
351 -10 28
352 -10 28
353 -10 28
354 -10 28
355 -10 28
356 -19 8
357 -19 8
358 -19 8
359 -19 8
360 -19 8
361 -19 8
362 -19 8
363 -19 8
364 -43 4
365 -43 4
366 -43 4
367 -43 4
368 -43 4
369 -43 4
370 -43 4
371 -43 4
372 -44 -21
373 -44 -21
374 -44 -21
375 -44 -21
376 -44 -21
377 -44 -21
378 -44 -21
379 15 8
380 15 8
381 15 8
382 19 33
383 19 33
384 19 33
385 19 33
386 19 33
387 19 33
388 -31 -10
389 -31 -10
390 -31 -10
391 -31 -10
392 36 14
393 36 14
394 36 14
395 36 14
396 -34 33
397 -34 33
398 -34 33
399 30 -16
400 30 -16
401 30 -16
402 30 -16
403 30 -16
404 30 -16
DEMAND_SECTION
1 0
2 28
3 28
4 7
5 1
6 1
7 14
8 1
9 1
10 1
11 28
12 14
13 7
14 1
15 28
16 28
17 7
18 28
19 1
20 1
21 1
22 1
23 28
24 28
25 7
26 1
27 1
28 1
29 1
30 1
31 28
32 7
33 28
34 28
35 1
36 1
37 28
38 7
39 1
40 28
41 14
42 1
43 1
44 1
45 1
46 1
47 28
48 1
49 1
50 28
51 14
52 1
53 1
54 1
55 1
56 14
57 7
58 1
59 1
60 1
61 28
62 7
63 1
64 1
65 1
66 1
67 28
68 28
69 14
70 14
71 7
72 1
73 1
74 1
75 28
76 1
77 1
78 1
79 1
80 14
81 7
82 1
83 1
84 1
85 1
86 28
87 28
88 1
89 1
90 1
91 1
92 1
93 14
94 7
95 1
96 1
97 1
98 1
99 1
100 28
101 1
102 1
103 1
104 1
105 1
106 28
107 1
108 1
109 28
110 7
111 28
112 14
113 7
114 1
115 1
116 1
117 1
118 1
119 1
120 28
121 7
122 1
123 1
124 1
125 1
126 14
127 1
128 1
129 1
130 1
131 28
132 14
133 7
134 28
135 28
136 7
137 1
138 1
139 28
140 28
141 7
142 1
143 1
144 1
145 1
146 28
147 28
148 7
149 1
150 28
151 28
152 7
153 1
154 1
155 1
156 1
157 28
158 7
159 1
160 28
161 1
162 1
163 1
164 1
165 28
166 28
167 1
168 1
169 1
170 1
171 1
172 1
173 28
174 28
175 28
176 28
177 7
178 1
179 1
180 1
181 1
182 1
183 14
184 7
185 1
186 1
187 1
188 14
189 7
190 1
191 1
192 1
193 1
194 1
195 1
196 28
197 14
198 1
199 28
200 7
201 1
202 1
203 28
204 1
205 1
206 1
207 28
208 28
209 7
210 1
211 1
212 28
213 28
214 7
215 1
216 1
217 1
218 1
219 1
220 1
221 28
222 14
223 7
224 1
225 28
226 28
227 1
228 1
229 1
230 1
231 14
232 7
233 1
234 1
235 1
236 1
237 1
238 1
239 28
240 1
241 1
242 1
243 1
244 1
245 1
246 28
247 7
248 28
249 14
250 7
251 1
252 1
253 14
254 1
255 1
256 1
257 1
258 1
259 1
260 28
261 14
262 1
263 1
264 1
265 1
266 1
267 28
268 28
269 7
270 1
271 1
272 1
273 1
274 1
275 1
276 28
277 28
278 1
279 1
280 1
281 1
282 28
283 28
284 1
285 1
286 1
287 28
288 28
289 14
290 7
291 1
292 1
293 1
294 1
295 1
296 1
297 28
298 14
299 7
300 1
301 1
302 1
303 1
304 1
305 1
306 14
307 7
308 1
309 28
310 28
311 1
312 1
313 1
314 1
315 28
316 28
317 7
318 1
319 1
320 1
321 28
322 28
323 1
324 1
325 1
326 1
327 1
328 1
329 28
330 14
331 7
332 1
333 1
334 1
335 1
336 1
337 1
338 28
339 14
340 7
341 1
342 1
343 1
344 1
345 1
346 1
347 28
348 28
349 7
350 1
351 1
352 1
353 1
354 1
355 1
356 28
357 7
358 1
359 1
360 1
361 1
362 1
363 1
364 28
365 7
366 1
367 1
368 1
369 1
370 1
371 1
372 28
373 14
374 7
375 1
376 1
377 1
378 1
379 14
380 7
381 1
382 14
383 1
384 1
385 1
386 1
387 1
388 14
389 1
390 1
391 1
392 14
393 1
394 1
395 1
396 14
397 7
398 1
399 28
400 28
401 7
402 1
403 1
404 1
DEPOT_SECTION
1
-1
EOF