SDVRP instances/custom_instances/p02_28_split0.sol
403 -4 82 80 81 79 84 83 249 247 251 248 250 279 280 277 276 278 275 38 -5 1 2 3 239 238 320 326 325 324 323 327 322 -12 60 61 65 64 63 62 126 129 125 127 128 69 73 71 72 70 160 159 162 161 163 147 148 -14 316 314 317 315 319 318 56 59 57 58 55 258 255 256 254 253 257 252 -18 17 20 21 19 54 51 49 50 53 52 165 169 168 167 170 164 171 166 -24 27 28 29 26 25 23 22 35 33 34 32 -108 109 298 297 301 296 303 299 302 300 304 45 44 43 39 41 40 42 284 283 285 -123 121 122 200 201 199 198 313 308 312 309 361 357 362 359 360 356 355 358 -124 119 120 46 47 48 286 287 -132 130 131 173 172 105 106 107 241 244 242 243 240 -146 145 282 281 321 -149 153 150 154 152 155 15 16 221 220 223 -156 369 368 366 363 367 365 370 364 135 133 134 136 137 311 310 -158 157 211 216 214 213 212 217 219 218 215 110 328 -181 174 176 179 175 178 180 177 398 399 402 401 400 403 -185 182 186 184 183 67 68 66 197 196 195 -189 188 187 192 193 194 190 191 266 92 95 98 94 97 96 93 338 345 339 344 337 341 342 340 343 -203 205 202 204 10 13 11 261 259 260 378 379 380 -207 210 209 206 208 348 351 352 346 354 350 353 349 347 -222 151 75 74 78 76 77 141 139 138 140 144 143 142 230 232 237 236 234 233 235 231 -246 245 36 37 376 374 375 372 371 373 377 387 390 388 389 -262 264 263 265 7 9 6 8 226 225 224 229 227 228 274 269 273 267 271 270 272 268 392 394 393 391 -305 306 307 31 30 89 86 90 91 85 87 88 382 383 386 381 384 385 -332 330 329 335 336 333 334 331 117 118 116 114 111 113 112 115 100 103 101 104 99 102 294 288 289 291 292 290 293 295 395 397 396 0 





OBJ=
2180.796
BEST_KNOWN=
0.000